4 
5  34 49 
6  04 19 34 48 
7  03 18 33 48 
8  03 18 33 48 
9  03 18 33 48 
10  03 18 33 48 
11  03 18 33 48 
12  03 18 33 48 
13  03 18 33 48 
14  03 18 33 48 
15  03 18 33 48 
16  03 18 33 48 
17  03 18 33 48 
18  03 18 33 48 
19  04 18 33 48 
20  03 18 33 48 
21  03 18 33 48 
22  03 18 34 49 
23  10 
0 
